p cnf 400 1
400 0
w 1 0.31218
w 2 1 0.229198
w 2 -1 0.256342
w 3 2 1
w 3 -2 0
w 4 3 0.862411
w 4 -3 0.193008
w 5 4 1
w 5 -4 0
w 6 5 0.448729
w 6 -5 0.415962
w 7 6 0.581691
w 7 -6 0.493125
w 8 7 0.731291
w 8 -7 0.896449
w 9 8 0
w 9 -8 1
w 10 9 0.248696
w 10 -9 0.889985
w 11 10 1
w 11 -10 0
w 12 11 1
w 12 -11 0
w 13 12 0.847042
w 13 -12 0.269236
w 14 13 0
w 14 -13 1
w 15 14 0.409458
w 15 -14 0.252053
w 16 15 1
w 16 -15 0
w 17 16 1
w 17 -16 0
w 18 17 0
w 18 -17 1
w 19 18 0.459422
w 19 -18 0.943253
w 20 19 1
w 20 -19 0
w 21 1 0.879191
w 21 -1 0.848996
w 22 21 2 1
w 22 21 -2 0
w 22 -21 2 1
w 22 -21 -2 1
w 23 22 3 0.349793
w 23 22 -3 0.218261
w 23 -22 3 0.81325
w 23 -22 -3 0.952179
w 24 23 4 1
w 24 23 -4 0
w 24 -23 4 0
w 24 -23 -4 1
w 25 24 5 0.393597
w 25 24 -5 0.716294
w 25 -24 5 0.0101803
w 25 -24 -5 0.838659
w 26 25 6 0.0536409
w 26 25 -6 0.275281
w 26 -25 6 0.399984
w 26 -25 -6 0.513063
w 27 26 7 1
w 27 26 -7 1
w 27 -26 7 0
w 27 -26 -7 1
w 28 27 8 0
w 28 27 -8 0
w 28 -27 8 0
w 28 -27 -8 1
w 29 28 9 0
w 29 28 -9 0
w 29 -28 9 0
w 29 -28 -9 1
w 30 29 10 0.583311
w 30 29 -10 0.72375
w 30 -29 10 0.736437
w 30 -29 -10 0.191375
w 31 30 11 0
w 31 30 -11 1
w 31 -30 11 0
w 31 -30 -11 1
w 32 31 12 0.525883
w 32 31 -12 0.243973
w 32 -31 12 0.141427
w 32 -31 -12 0.0389462
w 33 32 13 0
w 33 32 -13 1
w 33 -32 13 0
w 33 -32 -13 1
w 34 33 14 0.0768325
w 34 33 -14 0.540595
w 34 -33 14 0.650547
w 34 -33 -14 0.169757
w 35 34 15 0.338123
w 35 34 -15 0.612473
w 35 -34 15 0.381515
w 35 -34 -15 0.838949
w 36 35 16 0
w 36 35 -16 1
w 36 -35 16 1
w 36 -35 -16 0
w 37 36 17 0.193181
w 37 36 -17 0.842879
w 37 -36 17 0.521305
w 37 -36 -17 0.665423
w 38 37 18 0.262748
w 38 37 -18 0.191306
w 38 -37 18 0.0555447
w 38 -37 -18 0.404175
w 39 38 19 1
w 39 38 -19 0
w 39 -38 19 1
w 39 -38 -19 1
w 40 39 20 0
w 40 39 -20 1
w 40 -39 20 1
w 40 -39 -20 1
w 41 21 1
w 41 -21 0
w 42 41 22 0.634429
w 42 41 -22 0.983905
w 42 -41 22 0.381592
w 42 -41 -22 0.641798
w 43 42 23 0.803853
w 43 42 -23 0.372917
w 43 -42 23 0.673159
w 43 -42 -23 0.417488
w 44 43 24 0.516038
w 44 43 -24 0.938793
w 44 -43 24 0.231521
w 44 -43 -24 0.327609
w 45 44 25 1
w 45 44 -25 1
w 45 -44 25 0
w 45 -44 -25 1
w 46 45 26 0.387887
w 46 45 -26 0.676572
w 46 -45 26 0.909074
w 46 -45 -26 0.94186
w 47 46 27 0.65954
w 47 46 -27 0.146381
w 47 -46 27 0.550727
w 47 -46 -27 0.26193
w 48 47 28 0.185155
w 48 47 -28 0.245835
w 48 -47 28 0.0706163
w 48 -47 -28 0.826954
w 49 48 29 0
w 49 48 -29 0
w 49 -48 29 0
w 49 -48 -29 1
w 50 49 30 0.395345
w 50 49 -30 0.23075
w 50 -49 30 0.997489
w 50 -49 -30 0.722955
w 51 50 31 1
w 51 50 -31 1
w 51 -50 31 1
w 51 -50 -31 0
w 52 51 32 0
w 52 51 -32 0
w 52 -51 32 1
w 52 -51 -32 1
w 53 52 33 1
w 53 52 -33 0
w 53 -52 33 1
w 53 -52 -33 0
w 54 53 34 0.238545
w 54 53 -34 0.94854
w 54 -53 34 0.813589
w 54 -53 -34 0.309162
w 55 54 35 0.0197372
w 55 54 -35 0.183631
w 55 -54 35 0.975364
w 55 -54 -35 0.899044
w 56 55 36 1
w 56 55 -36 1
w 56 -55 36 0
w 56 -55 -36 0
w 57 56 37 0
w 57 56 -37 1
w 57 -56 37 0
w 57 -56 -37 1
w 58 57 38 1
w 58 57 -38 1
w 58 -57 38 0
w 58 -57 -38 0
w 59 58 39 0.0969505
w 59 58 -39 0.0273129
w 59 -58 39 0.865954
w 59 -58 -39 0.646472
w 60 59 40 0.433708
w 60 59 -40 0.885017
w 60 -59 40 0.739237
w 60 -59 -40 0.247297
w 61 41 0
w 61 -41 1
w 62 61 42 1
w 62 61 -42 0
w 62 -61 42 0
w 62 -61 -42 1
w 63 62 43 1
w 63 62 -43 0
w 63 -62 43 1
w 63 -62 -43 0
w 64 63 44 0.129385
w 64 63 -44 0.601266
w 64 -63 44 0.874999
w 64 -63 -44 0.361914
w 65 64 45 0.788846
w 65 64 -45 0.0557241
w 65 -64 45 0.546689
w 65 -64 -45 0.348976
w 66 65 46 0
w 66 65 -46 0
w 66 -65 46 1
w 66 -65 -46 1
w 67 66 47 0.684164
w 67 66 -47 0.103936
w 67 -66 47 0.895935
w 67 -66 -47 0.878343
w 68 67 48 0.162969
w 68 67 -48 0.256153
w 68 -67 48 0.108762
w 68 -67 -48 0.329047
w 69 68 49 1
w 69 68 -49 1
w 69 -68 49 1
w 69 -68 -49 0
w 70 69 50 1
w 70 69 -50 1
w 70 -69 50 0
w 70 -69 -50 0
w 71 70 51 0.600627
w 71 70 -51 0.0314928
w 71 -70 51 0.85746
w 71 -70 -51 0.147316
w 72 71 52 0
w 72 71 -52 1
w 72 -71 52 0
w 72 -71 -52 1
w 73 72 53 1
w 73 72 -53 0
w 73 -72 53 1
w 73 -72 -53 1
w 74 73 54 1
w 74 73 -54 0
w 74 -73 54 0
w 74 -73 -54 0
w 75 74 55 0.737491
w 75 74 -55 0.25757
w 75 -74 55 0.421503
w 75 -74 -55 0.406775
w 76 75 56 0.688831
w 76 75 -56 0.774423
w 76 -75 56 0.00782863
w 76 -75 -56 0.557424
w 77 76 57 0
w 77 76 -57 0
w 77 -76 57 1
w 77 -76 -57 0
w 78 77 58 1
w 78 77 -58 0
w 78 -77 58 0
w 78 -77 -58 0
w 79 78 59 0
w 79 78 -59 1
w 79 -78 59 0
w 79 -78 -59 1
w 80 79 60 0
w 80 79 -60 0
w 80 -79 60 1
w 80 -79 -60 0
w 81 61 1
w 81 -61 0
w 82 81 62 0.286223
w 82 81 -62 0.764873
w 82 -81 62 0.123882
w 82 -81 -62 0.85423
w 83 82 63 0
w 83 82 -63 0
w 83 -82 63 1
w 83 -82 -63 1
w 84 83 64 0.169178
w 84 83 -64 0.963937
w 84 -83 64 0.338648
w 84 -83 -64 0.474545
w 85 84 65 0
w 85 84 -65 0
w 85 -84 65 1
w 85 -84 -65 0
w 86 85 66 0.482136
w 86 85 -66 0.916581
w 86 -85 66 0.0943077
w 86 -85 -66 0.833811
w 87 86 67 1
w 87 86 -67 1
w 87 -86 67 1
w 87 -86 -67 0
w 88 87 68 0.342729
w 88 87 -68 0.913932
w 88 -87 68 0.654415
w 88 -87 -68 0.196959
w 89 88 69 1
w 89 88 -69 0
w 89 -88 69 0
w 89 -88 -69 0
w 90 89 70 0.547942
w 90 89 -70 0.432031
w 90 -89 70 0.0692879
w 90 -89 -70 0.0224865
w 91 90 71 0.0850959
w 91 90 -71 0.523715
w 91 -90 71 0.242399
w 91 -90 -71 0.587345
w 92 91 72 0
w 92 91 -72 0
w 92 -91 72 1
w 92 -91 -72 1
w 93 92 73 0.0820776
w 93 92 -73 0.828263
w 93 -92 73 0.716718
w 93 -92 -73 0.138584
w 94 93 74 0.247251
w 94 93 -74 0.481313
w 94 -93 74 0.891254
w 94 -93 -74 0.901666
w 95 94 75 0.25889
w 95 94 -75 0.454386
w 95 -94 75 0.737288
w 95 -94 -75 0.637653
w 96 95 76 0.467928
w 96 95 -76 0.185595
w 96 -95 76 0.354511
w 96 -95 -76 0.537216
w 97 96 77 1
w 97 96 -77 0
w 97 -96 77 0
w 97 -96 -77 1
w 98 97 78 1
w 98 97 -78 0
w 98 -97 78 1
w 98 -97 -78 0
w 99 98 79 0
w 99 98 -79 0
w 99 -98 79 1
w 99 -98 -79 1
w 100 99 80 1
w 100 99 -80 0
w 100 -99 80 0
w 100 -99 -80 0
w 101 81 0
w 101 -81 1
w 102 101 82 0.0411981
w 102 101 -82 0.96613
w 102 -101 82 0.42493
w 102 -101 -82 0.509126
w 103 102 83 0
w 103 102 -83 1
w 103 -102 83 1
w 103 -102 -83 1
w 104 103 84 0.0916027
w 104 103 -84 0.38086
w 104 -103 84 0.878311
w 104 -103 -84 0.961042
w 105 104 85 0.157449
w 105 104 -85 0.884707
w 105 -104 85 0.103783
w 105 -104 -85 0.339878
w 106 105 86 0.304794
w 106 105 -86 0.239026
w 106 -105 86 0.0347741
w 106 -105 -86 0.483127
w 107 106 87 0
w 107 106 -87 1
w 107 -106 87 0
w 107 -106 -87 0
w 108 107 88 0.93594
w 108 107 -88 0.00552058
w 108 -107 88 0.847322
w 108 -107 -88 0.36087
w 109 108 89 0.999047
w 109 108 -89 0.140311
w 109 -108 89 0.560989
w 109 -108 -89 0.358853
w 110 109 90 1
w 110 109 -90 0
w 110 -109 90 0
w 110 -109 -90 0
w 111 110 91 1
w 111 110 -91 0
w 111 -110 91 1
w 111 -110 -91 0
w 112 111 92 0.186653
w 112 111 -92 0.619732
w 112 -111 92 0.844307
w 112 -111 -92 0.221428
w 113 112 93 0
w 113 112 -93 1
w 113 -112 93 0
w 113 -112 -93 0
w 114 113 94 0.536767
w 114 113 -94 0.599161
w 114 -113 94 0.851683
w 114 -113 -94 0.384089
w 115 114 95 0.36633
w 115 114 -95 0.383136
w 115 -114 95 0.100342
w 115 -114 -95 0.927319
w 116 115 96 0.199603
w 116 115 -96 0.156962
w 116 -115 96 0.192445
w 116 -115 -96 0.679724
w 117 116 97 0
w 117 116 -97 0
w 117 -116 97 0
w 117 -116 -97 1
w 118 117 98 1
w 118 117 -98 0
w 118 -117 98 0
w 118 -117 -98 1
w 119 118 99 1
w 119 118 -99 1
w 119 -118 99 0
w 119 -118 -99 1
w 120 119 100 0.0362322
w 120 119 -100 0.120752
w 120 -119 100 0.472022
w 120 -119 -100 0.887915
w 121 101 0.432053
w 121 -101 0.254245
w 122 121 102 0.532394
w 122 121 -102 0.181564
w 122 -121 102 0.629965
w 122 -121 -102 0.731997
w 123 122 103 0
w 123 122 -103 1
w 123 -122 103 1
w 123 -122 -103 1
w 124 123 104 0
w 124 123 -104 0
w 124 -123 104 0
w 124 -123 -104 1
w 125 124 105 0
w 125 124 -105 0
w 125 -124 105 1
w 125 -124 -105 1
w 126 125 106 1
w 126 125 -106 0
w 126 -125 106 0
w 126 -125 -106 0
w 127 126 107 0.835751
w 127 126 -107 0.471959
w 127 -126 107 0.235847
w 127 -126 -107 0.0899963
w 128 127 108 0
w 128 127 -108 1
w 128 -127 108 0
w 128 -127 -108 0
w 129 128 109 0.81231
w 129 128 -109 0.91196
w 129 -128 109 0.21353
w 129 -128 -109 0.238664
w 130 129 110 1
w 130 129 -110 0
w 130 -129 110 1
w 130 -129 -110 0
w 131 130 111 0.0569516
w 131 130 -111 0.865927
w 131 -130 111 0.700005
w 131 -130 -111 0.319333
w 132 131 112 0
w 132 131 -112 1
w 132 -131 112 0
w 132 -131 -112 0
w 133 132 113 0
w 133 132 -113 1
w 133 -132 113 1
w 133 -132 -113 0
w 134 133 114 0
w 134 133 -114 0
w 134 -133 114 1
w 134 -133 -114 1
w 135 134 115 0.366839
w 135 134 -115 0.766923
w 135 -134 115 0.876693
w 135 -134 -115 0.580369
w 136 135 116 0
w 136 135 -116 0
w 136 -135 116 1
w 136 -135 -116 0
w 137 136 117 0.871187
w 137 136 -117 0.410244
w 137 -136 117 0.24923
w 137 -136 -117 0.19052
w 138 137 118 0.860839
w 138 137 -118 0.356219
w 138 -137 118 0.391696
w 138 -137 -118 0.420284
w 139 138 119 1
w 139 138 -119 0
w 139 -138 119 0
w 139 -138 -119 1
w 140 139 120 0
w 140 139 -120 0
w 140 -139 120 1
w 140 -139 -120 1
w 141 121 0.424263
w 141 -121 0.780061
w 142 141 122 0.00463224
w 142 141 -122 0.785648
w 142 -141 122 0.945533
w 142 -141 -122 0.932293
w 143 142 123 0
w 143 142 -123 1
w 143 -142 123 1
w 143 -142 -123 0
w 144 143 124 0.154856
w 144 143 -124 0.821476
w 144 -143 124 0.621936
w 144 -143 -124 0.0156946
w 145 144 125 1
w 145 144 -125 1
w 145 -144 125 1
w 145 -144 -125 0
w 146 145 126 1
w 146 145 -126 0
w 146 -145 126 0
w 146 -145 -126 0
w 147 146 127 1
w 147 146 -127 1
w 147 -146 127 1
w 147 -146 -127 0
w 148 147 128 0.258806
w 148 147 -128 0.038449
w 148 -147 128 0.397921
w 148 -147 -128 0.204339
w 149 148 129 0.754322
w 149 148 -129 0.964107
w 149 -148 129 0.447351
w 149 -148 -129 0.659948
w 150 149 130 0.334205
w 150 149 -130 0.814804
w 150 -149 130 0.416539
w 150 -149 -130 0.956141
w 151 150 131 0.594235
w 151 150 -131 0.969773
w 151 -150 131 0.266477
w 151 -150 -131 0.260968
w 152 151 132 0.517935
w 152 151 -132 0.0215148
w 152 -151 132 0.249598
w 152 -151 -132 0.0700637
w 153 152 133 0.676541
w 153 152 -133 0.679617
w 153 -152 133 0.6728
w 153 -152 -133 0.0810681
w 154 153 134 0.285073
w 154 153 -134 0.339874
w 154 -153 134 0.751883
w 154 -153 -134 0.682993
w 155 154 135 0.722625
w 155 154 -135 0.437316
w 155 -154 135 0.50832
w 155 -154 -135 0.169976
w 156 155 136 0
w 156 155 -136 0
w 156 -155 136 1
w 156 -155 -136 0
w 157 156 137 0
w 157 156 -137 1
w 157 -156 137 1
w 157 -156 -137 1
w 158 157 138 0
w 158 157 -138 1
w 158 -157 138 0
w 158 -157 -138 1
w 159 158 139 0.237228
w 159 158 -139 0.191742
w 159 -158 139 0.276659
w 159 -158 -139 0.910028
w 160 159 140 0
w 160 159 -140 0
w 160 -159 140 1
w 160 -159 -140 0
w 161 141 0.156896
w 161 -141 0.4646
w 162 161 142 0
w 162 161 -142 1
w 162 -161 142 0
w 162 -161 -142 1
w 163 162 143 1
w 163 162 -143 1
w 163 -162 143 0
w 163 -162 -143 1
w 164 163 144 1
w 164 163 -144 0
w 164 -163 144 1
w 164 -163 -144 0
w 165 164 145 0.174446
w 165 164 -145 0.809977
w 165 -164 145 0.200373
w 165 -164 -145 0.411674
w 166 165 146 1
w 166 165 -146 0
w 166 -165 146 0
w 166 -165 -146 1
w 167 166 147 0.887212
w 167 166 -147 0.2091
w 167 -166 147 0.394897
w 167 -166 -147 0.044108
w 168 167 148 0.710307
w 168 167 -148 0.709324
w 168 -167 148 0.308276
w 168 -167 -148 0.12298
w 169 168 149 0
w 169 168 -149 1
w 169 -168 149 1
w 169 -168 -149 0
w 170 169 150 0.169126
w 170 169 -150 0.075285
w 170 -169 150 0.591383
w 170 -169 -150 0.946932
w 171 170 151 0
w 171 170 -151 0
w 171 -170 151 1
w 171 -170 -151 1
w 172 171 152 0.181757
w 172 171 -152 0.872118
w 172 -171 152 0.854754
w 172 -171 -152 0.456286
w 173 172 153 0
w 173 172 -153 0
w 173 -172 153 0
w 173 -172 -153 1
w 174 173 154 1
w 174 173 -154 1
w 174 -173 154 0
w 174 -173 -154 0
w 175 174 155 0.574853
w 175 174 -155 0.97735
w 175 -174 155 0.0474621
w 175 -174 -155 0.341299
w 176 175 156 1
w 176 175 -156 1
w 176 -175 156 1
w 176 -175 -156 0
w 177 176 157 1
w 177 176 -157 0
w 177 -176 157 0
w 177 -176 -157 1
w 178 177 158 0.111785
w 178 177 -158 0.830603
w 178 -177 158 0.615792
w 178 -177 -158 0.966539
w 179 178 159 0
w 179 178 -159 0
w 179 -178 159 0
w 179 -178 -159 1
w 180 179 160 0
w 180 179 -160 0
w 180 -179 160 1
w 180 -179 -160 1
w 181 161 1
w 181 -161 0
w 182 181 162 0.233085
w 182 181 -162 0.228511
w 182 -181 162 0.0310729
w 182 -181 -162 0.256546
w 183 182 163 0.541498
w 183 182 -163 0.355292
w 183 -182 163 0.944879
w 183 -182 -163 0.998854
w 184 183 164 0.293467
w 184 183 -164 0.577588
w 184 -183 164 0.472945
w 184 -183 -164 0.0371415
w 185 184 165 0.303548
w 185 184 -165 0.652934
w 185 -184 165 0.655912
w 185 -184 -165 0.590437
w 186 185 166 0.994007
w 186 185 -166 0.220823
w 186 -185 166 0.111344
w 186 -185 -166 0.0985552
w 187 186 167 1
w 187 186 -167 0
w 187 -186 167 0
w 187 -186 -167 0
w 188 187 168 0.0435089
w 188 187 -168 0.325581
w 188 -187 168 0.089424
w 188 -187 -168 0.0745818
w 189 188 169 0.880428
w 189 188 -169 0.61608
w 189 -188 169 0.937419
w 189 -188 -169 0.825306
w 190 189 170 0.761519
w 190 189 -170 0.118773
w 190 -189 170 0.192522
w 190 -189 -170 0.234465
w 191 190 171 0
w 191 190 -171 1
w 191 -190 171 1
w 191 -190 -171 0
w 192 191 172 0
w 192 191 -172 1
w 192 -191 172 0
w 192 -191 -172 1
w 193 192 173 0.588086
w 193 192 -173 0.364921
w 193 -192 173 0.310232
w 193 -192 -173 0.941821
w 194 193 174 0
w 194 193 -174 0
w 194 -193 174 0
w 194 -193 -174 1
w 195 194 175 1
w 195 194 -175 1
w 195 -194 175 1
w 195 -194 -175 0
w 196 195 176 0.290925
w 196 195 -176 0.0640647
w 196 -195 176 0.0850758
w 196 -195 -176 0.483447
w 197 196 177 1
w 197 196 -177 0
w 197 -196 177 0
w 197 -196 -177 1
w 198 197 178 0.964992
w 198 197 -178 0.466655
w 198 -197 178 0.434961
w 198 -197 -178 0.314264
w 199 198 179 0.0653286
w 199 198 -179 0.902351
w 199 -198 179 0.359736
w 199 -198 -179 0.37556
w 200 199 180 0.817154
w 200 199 -180 0.546705
w 200 -199 180 0.829502
w 200 -199 -180 0.600153
w 201 181 0.889414
w 201 -181 0.965279
w 202 201 182 0.565405
w 202 201 -182 0.267824
w 202 -201 182 0.914573
w 202 -201 -182 0.856331
w 203 202 183 1
w 203 202 -183 0
w 203 -202 183 0
w 203 -202 -183 1
w 204 203 184 0.466961
w 204 203 -184 0.290478
w 204 -203 184 0.608267
w 204 -203 -184 0.431953
w 205 204 185 0.0432275
w 205 204 -185 0.746217
w 205 -204 185 0.751947
w 205 -204 -185 0.108556
w 206 205 186 0.111684
w 206 205 -186 0.484116
w 206 -205 186 0.492739
w 206 -205 -186 0.928838
w 207 206 187 1
w 207 206 -187 0
w 207 -206 187 0
w 207 -206 -187 0
w 208 207 188 0
w 208 207 -188 0
w 208 -207 188 1
w 208 -207 -188 0
w 209 208 189 1
w 209 208 -189 0
w 209 -208 189 1
w 209 -208 -189 0
w 210 209 190 0.191362
w 210 209 -190 0.231703
w 210 -209 190 0.286554
w 210 -209 -190 0.623315
w 211 210 191 0.329782
w 211 210 -191 0.369532
w 211 -210 191 0.740783
w 211 -210 -191 0.438338
w 212 211 192 0
w 212 211 -192 1
w 212 -211 192 0
w 212 -211 -192 1
w 213 212 193 0.83308
w 213 212 -193 0.310295
w 213 -212 193 0.791371
w 213 -212 -193 0.0447348
w 214 213 194 0.577737
w 214 213 -194 0.821795
w 214 -213 194 0.566659
w 214 -213 -194 0.278675
w 215 214 195 0
w 215 214 -195 1
w 215 -214 195 1
w 215 -214 -195 0
w 216 215 196 0.10664
w 216 215 -196 0.576406
w 216 -215 196 0.152191
w 216 -215 -196 0.393194
w 217 216 197 0
w 217 216 -197 0
w 217 -216 197 1
w 217 -216 -197 1
w 218 217 198 0
w 218 217 -198 1
w 218 -217 198 0
w 218 -217 -198 0
w 219 218 199 0.0370432
w 219 218 -199 0.931272
w 219 -218 199 0.825877
w 219 -218 -199 0.828414
w 220 219 200 0.630441
w 220 219 -200 0.406151
w 220 -219 200 0.797802
w 220 -219 -200 0.1971
w 221 201 0.252987
w 221 -201 0.857742
w 222 221 202 0.68134
w 222 221 -202 0.242786
w 222 -221 202 0.584576
w 222 -221 -202 0.78798
w 223 222 203 0.736767
w 223 222 -203 0.181174
w 223 -222 203 0.018913
w 223 -222 -203 0.877794
w 224 223 204 0.588166
w 224 223 -204 0.759605
w 224 -223 204 0.0654638
w 224 -223 -204 0.175519
w 225 224 205 1
w 225 224 -205 0
w 225 -224 205 1
w 225 -224 -205 0
w 226 225 206 0
w 226 225 -206 1
w 226 -225 206 1
w 226 -225 -206 1
w 227 226 207 1
w 227 226 -207 1
w 227 -226 207 1
w 227 -226 -207 0
w 228 227 208 0.769755
w 228 227 -208 0.913118
w 228 -227 208 0.763409
w 228 -227 -208 0.354331
w 229 228 209 0.582601
w 229 228 -209 0.0910984
w 229 -228 209 0.882273
w 229 -228 -209 0.601514
w 230 229 210 0.786423
w 230 229 -210 0.189681
w 230 -229 210 0.728497
w 230 -229 -210 0.851887
w 231 230 211 1
w 231 230 -211 0
w 231 -230 211 1
w 231 -230 -211 1
w 232 231 212 0.0671815
w 232 231 -212 0.202082
w 232 -231 212 0.0248852
w 232 -231 -212 0.532963
w 233 232 213 0.00367699
w 233 232 -213 0.195844
w 233 -232 213 0.728588
w 233 -232 -213 0.235455
w 234 233 214 0.498343
w 234 233 -214 0.148574
w 234 -233 214 0.479877
w 234 -233 -214 0.852674
w 235 234 215 0.0624784
w 235 234 -215 0.943772
w 235 -234 215 0.731945
w 235 -234 -215 0.663993
w 236 235 216 0.518368
w 236 235 -216 0.853673
w 236 -235 216 0.641162
w 236 -235 -216 0.370255
w 237 236 217 1
w 237 236 -217 0
w 237 -236 217 0
w 237 -236 -217 0
w 238 237 218 0.70168
w 238 237 -218 0.162564
w 238 -237 218 0.760847
w 238 -237 -218 0.726565
w 239 238 219 0.383769
w 239 238 -219 0.730242
w 239 -238 219 0.891371
w 239 -238 -219 0.112357
w 240 239 220 0.607839
w 240 239 -220 0.610699
w 240 -239 220 0.114271
w 240 -239 -220 0.0877159
w 241 221 0
w 241 -221 1
w 242 241 222 0
w 242 241 -222 0
w 242 -241 222 1
w 242 -241 -222 0
w 243 242 223 1
w 243 242 -223 0
w 243 -242 223 0
w 243 -242 -223 0
w 244 243 224 0.955884
w 244 243 -224 0.744519
w 244 -243 224 0.919896
w 244 -243 -224 0.51465
w 245 244 225 1
w 245 244 -225 0
w 245 -244 225 1
w 245 -244 -225 1
w 246 245 226 0.903007
w 246 245 -226 0.669359
w 246 -245 226 0.771622
w 246 -245 -226 0.868704
w 247 246 227 1
w 247 246 -227 0
w 247 -246 227 0
w 247 -246 -227 1
w 248 247 228 0.515108
w 248 247 -228 0.25284
w 248 -247 228 0.642808
w 248 -247 -228 0.329295
w 249 248 229 0.857064
w 249 248 -229 0.997155
w 249 -248 229 0.533623
w 249 -248 -229 0.441576
w 250 249 230 0.358136
w 250 249 -230 0.39746
w 250 -249 230 0.628408
w 250 -249 -230 0.278032
w 251 250 231 0.0746077
w 251 250 -231 0.360493
w 251 -250 231 0.187607
w 251 -250 -231 0.247372
w 252 251 232 0
w 252 251 -232 1
w 252 -251 232 1
w 252 -251 -232 0
w 253 252 233 0
w 253 252 -233 1
w 253 -252 233 1
w 253 -252 -233 1
w 254 253 234 0.965057
w 254 253 -234 0.0993511
w 254 -253 234 0.591786
w 254 -253 -234 0.294352
w 255 254 235 0.44885
w 255 254 -235 0.291507
w 255 -254 235 0.205624
w 255 -254 -235 0.890426
w 256 255 236 0
w 256 255 -236 0
w 256 -255 236 0
w 256 -255 -236 1
w 257 256 237 1
w 257 256 -237 1
w 257 -256 237 1
w 257 -256 -237 0
w 258 257 238 0
w 258 257 -238 1
w 258 -257 238 0
w 258 -257 -238 0
w 259 258 239 1
w 259 258 -239 1
w 259 -258 239 0
w 259 -258 -239 1
w 260 259 240 0.246283
w 260 259 -240 0.648649
w 260 -259 240 0.799647
w 260 -259 -240 0.83807
w 261 241 0.471648
w 261 -241 0.28692
w 262 261 242 0
w 262 261 -242 1
w 262 -261 242 1
w 262 -261 -242 0
w 263 262 243 1
w 263 262 -243 1
w 263 -262 243 0
w 263 -262 -243 0
w 264 263 244 0
w 264 263 -244 1
w 264 -263 244 0
w 264 -263 -244 0
w 265 264 245 0.140272
w 265 264 -245 0.789316
w 265 -264 245 0.00812436
w 265 -264 -245 0.994057
w 266 265 246 0
w 266 265 -246 1
w 266 -265 246 0
w 266 -265 -246 1
w 267 266 247 1
w 267 266 -247 0
w 267 -266 247 1
w 267 -266 -247 1
w 268 267 248 0.64292
w 268 267 -248 0.63524
w 268 -267 248 0.927777
w 268 -267 -248 0.883953
w 269 268 249 1
w 269 268 -249 1
w 269 -268 249 0
w 269 -268 -249 1
w 270 269 250 0
w 270 269 -250 0
w 270 -269 250 0
w 270 -269 -250 1
w 271 270 251 0.246105
w 271 270 -251 0.734898
w 271 -270 251 0.660374
w 271 -270 -251 0.240162
w 272 271 252 0.35209
w 272 271 -252 0.934515
w 272 -271 252 0.154423
w 272 -271 -252 0.692455
w 273 272 253 0
w 273 272 -253 0
w 273 -272 253 1
w 273 -272 -253 0
w 274 273 254 1
w 274 273 -254 0
w 274 -273 254 1
w 274 -273 -254 1
w 275 274 255 0.562958
w 275 274 -255 0.887814
w 275 -274 255 0.284701
w 275 -274 -255 0.796565
w 276 275 256 0
w 276 275 -256 1
w 276 -275 256 1
w 276 -275 -256 0
w 277 276 257 0
w 277 276 -257 0
w 277 -276 257 0
w 277 -276 -257 1
w 278 277 258 0.682186
w 278 277 -258 0.629845
w 278 -277 258 0.9045
w 278 -277 -258 0.374641
w 279 278 259 0
w 279 278 -259 1
w 279 -278 259 0
w 279 -278 -259 0
w 280 279 260 1
w 280 279 -260 0
w 280 -279 260 0
w 280 -279 -260 0
w 281 261 0
w 281 -261 1
w 282 281 262 0.438159
w 282 281 -262 0.33865
w 282 -281 262 0.873229
w 282 -281 -262 0.455631
w 283 282 263 0.0668893
w 283 282 -263 0.125352
w 283 -282 263 0.00288077
w 283 -282 -263 0.995448
w 284 283 264 0
w 284 283 -264 1
w 284 -283 264 0
w 284 -283 -264 0
w 285 284 265 0.512275
w 285 284 -265 0.386416
w 285 -284 265 0.879921
w 285 -284 -265 0.862737
w 286 285 266 0.893108
w 286 285 -266 0.706893
w 286 -285 266 0.328542
w 286 -285 -266 0.324825
w 287 286 267 0.739183
w 287 286 -267 0.275543
w 287 -286 267 0.801106
w 287 -286 -267 0.0376374
w 288 287 268 0.426256
w 288 287 -268 0.475796
w 288 -287 268 0.849614
w 288 -287 -268 0.299485
w 289 288 269 0.397327
w 289 288 -269 0.366374
w 289 -288 269 0.0567794
w 289 -288 -269 0.400207
w 290 289 270 1
w 290 289 -270 1
w 290 -289 270 0
w 290 -289 -270 1
w 291 290 271 0.162137
w 291 290 -271 0.81289
w 291 -290 271 0.637291
w 291 -290 -271 0.0248745
w 292 291 272 0.530399
w 292 291 -272 0.731768
w 292 -291 272 0.98037
w 292 -291 -272 0.855224
w 293 292 273 0.719552
w 293 292 -273 0.130767
w 293 -292 273 0.505394
w 293 -292 -273 0.75719
w 294 293 274 0.931649
w 294 293 -274 0.232986
w 294 -293 274 0.491344
w 294 -293 -274 0.231134
w 295 294 275 1
w 295 294 -275 0
w 295 -294 275 1
w 295 -294 -275 0
w 296 295 276 0.73342
w 296 295 -276 0.387296
w 296 -295 276 0.0666755
w 296 -295 -276 0.383282
w 297 296 277 0.824046
w 297 296 -277 0.54542
w 297 -296 277 0.62666
w 297 -296 -277 0.461337
w 298 297 278 0.278487
w 298 297 -278 0.991736
w 298 -297 278 0.302062
w 298 -297 -278 0.258857
w 299 298 279 0.00634957
w 299 298 -279 0.978409
w 299 -298 279 0.977727
w 299 -298 -279 0.511743
w 300 299 280 0.619457
w 300 299 -280 0.443393
w 300 -299 280 0.968585
w 300 -299 -280 0.110801
w 301 281 0.132999
w 301 -281 0.999472
w 302 301 282 1
w 302 301 -282 0
w 302 -301 282 0
w 302 -301 -282 0
w 303 302 283 0.298039
w 303 302 -283 0.470894
w 303 -302 283 0.489416
w 303 -302 -283 0.122085
w 304 303 284 1
w 304 303 -284 0
w 304 -303 284 0
w 304 -303 -284 0
w 305 304 285 0.88867
w 305 304 -285 0.653421
w 305 -304 285 0.422119
w 305 -304 -285 0.895019
w 306 305 286 0.399846
w 306 305 -286 0.406762
w 306 -305 286 0.367429
w 306 -305 -286 0.0193035
w 307 306 287 0.336015
w 307 306 -287 0.130105
w 307 -306 287 0.524682
w 307 -306 -287 0.469014
w 308 307 288 0
w 308 307 -288 1
w 308 -307 288 1
w 308 -307 -288 0
w 309 308 289 0.0935725
w 309 308 -289 0.326119
w 309 -308 289 0.381712
w 309 -308 -289 0.582989
w 310 309 290 0
w 310 309 -290 0
w 310 -309 290 1
w 310 -309 -290 1
w 311 310 291 1
w 311 310 -291 0
w 311 -310 291 1
w 311 -310 -291 0
w 312 311 292 0.378879
w 312 311 -292 0.428753
w 312 -311 292 0.175085
w 312 -311 -292 0.746308
w 313 312 293 1
w 313 312 -293 0
w 313 -312 293 1
w 313 -312 -293 0
w 314 313 294 0.707738
w 314 313 -294 0.346638
w 314 -313 294 0.374542
w 314 -313 -294 0.125664
w 315 314 295 0
w 315 314 -295 0
w 315 -314 295 0
w 315 -314 -295 1
w 316 315 296 0.149043
w 316 315 -296 0.0650962
w 316 -315 296 0.50129
w 316 -315 -296 0.18067
w 317 316 297 1
w 317 316 -297 0
w 317 -316 297 1
w 317 -316 -297 0
w 318 317 298 0.691356
w 318 317 -298 0.720846
w 318 -317 298 0.245117
w 318 -317 -298 0.866442
w 319 318 299 0
w 319 318 -299 0
w 319 -318 299 1
w 319 -318 -299 1
w 320 319 300 1
w 320 319 -300 0
w 320 -319 300 0
w 320 -319 -300 0
w 321 301 1
w 321 -301 0
w 322 321 302 0.323973
w 322 321 -302 0.863798
w 322 -321 302 0.427785
w 322 -321 -302 0.126198
w 323 322 303 1
w 323 322 -303 1
w 323 -322 303 1
w 323 -322 -303 0
w 324 323 304 0
w 324 323 -304 0
w 324 -323 304 1
w 324 -323 -304 1
w 325 324 305 0
w 325 324 -305 1
w 325 -324 305 0
w 325 -324 -305 1
w 326 325 306 0.915124
w 326 325 -306 0.301852
w 326 -325 306 0.00695613
w 326 -325 -306 0.356728
w 327 326 307 0
w 327 326 -307 1
w 327 -326 307 1
w 327 -326 -307 0
w 328 327 308 1
w 328 327 -308 0
w 328 -327 308 0
w 328 -327 -308 1
w 329 328 309 0.184568
w 329 328 -309 0.559401
w 329 -328 309 0.168423
w 329 -328 -309 0.378078
w 330 329 310 1
w 330 329 -310 0
w 330 -329 310 1
w 330 -329 -310 0
w 331 330 311 0
w 331 330 -311 1
w 331 -330 311 0
w 331 -330 -311 0
w 332 331 312 0.93445
w 332 331 -312 0.663225
w 332 -331 312 0.294651
w 332 -331 -312 0.941407
w 333 332 313 0
w 333 332 -313 0
w 333 -332 313 1
w 333 -332 -313 0
w 334 333 314 0
w 334 333 -314 1
w 334 -333 314 0
w 334 -333 -314 1
w 335 334 315 1
w 335 334 -315 1
w 335 -334 315 1
w 335 -334 -315 0
w 336 335 316 0
w 336 335 -316 0
w 336 -335 316 1
w 336 -335 -316 1
w 337 336 317 0
w 337 336 -317 1
w 337 -336 317 1
w 337 -336 -317 0
w 338 337 318 0.721547
w 338 337 -318 0.855929
w 338 -337 318 0.645647
w 338 -337 -318 0.0161976
w 339 338 319 0.6656
w 339 338 -319 0.713514
w 339 -338 319 0.72477
w 339 -338 -319 0.830522
w 340 339 320 0
w 340 339 -320 1
w 340 -339 320 1
w 340 -339 -320 1
w 341 321 0.149771
w 341 -321 0.777098
w 342 341 322 0.292063
w 342 341 -322 0.984322
w 342 -341 322 0.565518
w 342 -341 -322 0.825183
w 343 342 323 0.0751823
w 343 342 -323 0.313508
w 343 -342 323 0.273244
w 343 -342 -323 0.309505
w 344 343 324 0
w 344 343 -324 1
w 344 -343 324 1
w 344 -343 -324 1
w 345 344 325 0.780001
w 345 344 -325 0.847986
w 345 -344 325 0.603174
w 345 -344 -325 0.493515
w 346 345 326 0.433696
w 346 345 -326 0.782366
w 346 -345 326 0.315724
w 346 -345 -326 0.737069
w 347 346 327 1
w 347 346 -327 1
w 347 -346 327 1
w 347 -346 -327 0
w 348 347 328 0
w 348 347 -328 1
w 348 -347 328 1
w 348 -347 -328 0
w 349 348 329 0.997035
w 349 348 -329 0.333017
w 349 -348 329 0.0721515
w 349 -348 -329 0.270278
w 350 349 330 0.114408
w 350 349 -330 0.465
w 350 -349 330 0.934449
w 350 -349 -330 0.878212
w 351 350 331 0.872024
w 351 350 -331 0.658213
w 351 -350 331 0.363638
w 351 -350 -331 0.475198
w 352 351 332 1
w 352 351 -332 1
w 352 -351 332 0
w 352 -351 -332 1
w 353 352 333 0.219383
w 353 352 -333 0.743744
w 353 -352 333 0.330983
w 353 -352 -333 0.288189
w 354 353 334 1
w 354 353 -334 1
w 354 -353 334 0
w 354 -353 -334 0
w 355 354 335 0
w 355 354 -335 0
w 355 -354 335 0
w 355 -354 -335 1
w 356 355 336 0.21388
w 356 355 -336 0.263805
w 356 -355 336 0.971856
w 356 -355 -336 0.148329
w 357 356 337 0
w 357 356 -337 1
w 357 -356 337 1
w 357 -356 -337 1
w 358 357 338 1
w 358 357 -338 0
w 358 -357 338 0
w 358 -357 -338 0
w 359 358 339 0
w 359 358 -339 1
w 359 -358 339 1
w 359 -358 -339 1
w 360 359 340 0
w 360 359 -340 1
w 360 -359 340 0
w 360 -359 -340 0
w 361 341 0.564391
w 361 -341 0.650613
w 362 361 342 1
w 362 361 -342 0
w 362 -361 342 1
w 362 -361 -342 1
w 363 362 343 0
w 363 362 -343 1
w 363 -362 343 1
w 363 -362 -343 1
w 364 363 344 0.467976
w 364 363 -344 0.0619414
w 364 -363 344 0.871795
w 364 -363 -344 0.255514
w 365 364 345 0
w 365 364 -345 1
w 365 -364 345 0
w 365 -364 -345 0
w 366 365 346 0
w 366 365 -346 1
w 366 -365 346 0
w 366 -365 -346 0
w 367 366 347 0.73426
w 367 366 -347 0.486713
w 367 -366 347 0.2435
w 367 -366 -347 0.29865
w 368 367 348 0
w 368 367 -348 1
w 368 -367 348 1
w 368 -367 -348 0
w 369 368 349 0.424119
w 369 368 -349 0.371074
w 369 -368 349 0.10964
w 369 -368 -349 0.04095
w 370 369 350 0.0294782
w 370 369 -350 0.508926
w 370 -369 350 0.999405
w 370 -369 -350 0.901274
w 371 370 351 0.465792
w 371 370 -351 0.65912
w 371 -370 351 0.0596112
w 371 -370 -351 0.982586
w 372 371 352 0.138183
w 372 371 -352 0.88077
w 372 -371 352 0.779302
w 372 -371 -352 0.385298
w 373 372 353 0.410332
w 373 372 -353 0.119558
w 373 -372 353 0.440161
w 373 -372 -353 0.653833
w 374 373 354 0
w 374 373 -354 0
w 374 -373 354 1
w 374 -373 -354 1
w 375 374 355 0.420677
w 375 374 -355 0.2964
w 375 -374 355 0.277271
w 375 -374 -355 0.530317
w 376 375 356 1
w 376 375 -356 0
w 376 -375 356 1
w 376 -375 -356 1
w 377 376 357 0
w 377 376 -357 1
w 377 -376 357 0
w 377 -376 -357 0
w 378 377 358 0.80851
w 378 377 -358 0.543288
w 378 -377 358 0.421889
w 378 -377 -358 0.193808
w 379 378 359 0
w 379 378 -359 0
w 379 -378 359 0
w 379 -378 -359 1
w 380 379 360 0.514382
w 380 379 -360 0.567215
w 380 -379 360 0.162221
w 380 -379 -360 0.386663
w 381 361 0
w 381 -361 1
w 382 381 362 0.750683
w 382 381 -362 0.113214
w 382 -381 362 0.0204124
w 382 -381 -362 0.965418
w 383 382 363 0.866688
w 383 382 -363 0.179558
w 383 -382 363 0.134077
w 383 -382 -363 0.477404
w 384 383 364 0.254265
w 384 383 -364 0.147731
w 384 -383 364 0.522007
w 384 -383 -364 0.896853
w 385 384 365 0.0652951
w 385 384 -365 0.318742
w 385 -384 365 0.150048
w 385 -384 -365 0.56203
w 386 385 366 1
w 386 385 -366 1
w 386 -385 366 0
w 386 -385 -366 1
w 387 386 367 0
w 387 386 -367 1
w 387 -386 367 0
w 387 -386 -367 1
w 388 387 368 0.0830345
w 388 387 -368 0.428328
w 388 -387 368 0.0533204
w 388 -387 -368 0.103447
w 389 388 369 0
w 389 388 -369 1
w 389 -388 369 0
w 389 -388 -369 0
w 390 389 370 1
w 390 389 -370 1
w 390 -389 370 0
w 390 -389 -370 0
w 391 390 371 0
w 391 390 -371 0
w 391 -390 371 1
w 391 -390 -371 0
w 392 391 372 0.481229
w 392 391 -372 0.164972
w 392 -391 372 0.0810527
w 392 -391 -372 0.118247
w 393 392 373 1
w 393 392 -373 0
w 393 -392 373 0
w 393 -392 -373 1
w 394 393 374 0
w 394 393 -374 1
w 394 -393 374 1
w 394 -393 -374 1
w 395 394 375 0.822197
w 395 394 -375 0.436926
w 395 -394 375 0.650949
w 395 -394 -375 0.395501
w 396 395 376 0
w 396 395 -376 0
w 396 -395 376 1
w 396 -395 -376 0
w 397 396 377 0.423528
w 397 396 -377 0.245266
w 397 -396 377 0.803193
w 397 -396 -377 0.753794
w 398 397 378 0.385319
w 398 397 -378 0.235023
w 398 -397 378 0.111796
w 398 -397 -378 0.466372
w 399 398 379 1
w 399 398 -379 1
w 399 -398 379 1
w 399 -398 -379 0
w 400 399 380 1
w 400 399 -380 0
w 400 -399 380 0
w 400 -399 -380 0